5927 13475 0



5927 12736 1



5927 13190 2



5927 12213 3



5927 13250 4



5927 13415 5



5927 13237 6



5927 12962 7



5927 12484 8



5927 12999 9



5927 12961 10



5927 13345 11



5927 13151 12



5927 12397 13



5927 12698 14



5927 13526 15



5927 13647 16



5927 13735 17



5927 12947 18



5927 13340 19



5927 13290 20



5927 12935 21



5927 13279 22



5927 13631 23



5927 12852 24



5927 13049 25



5927 12100 26



5927 13480 27



5927 13249 28



5927 12861 29



5927 13645 30



5927 13068 31



5927 13294 32



5932 13564 33
5927 13686 33



5927 13374 34



5927 12903 35



5927 13238 36



5927 13262 37



5927 13418 38



5927 13167 39



5927 12703 40



5927 12672 41



5927 13437 42



5927 13333 43



5927 12950 44



5927 13409 45



5927 13369 46



5927 12731 47



5927 13449 48



5927 12877 49



